unsat
(define-fun addExpr1 ((x Int) (y Int)) Int x)
(define-fun addExpr2 ((x Int) (y Int)) Int x)
0.01user 0.00system 0:00.01elapsed 100%CPU (0avgtext+0avgdata 23564maxresident)k
0inputs+8outputs (0major+770minor)pagefaults 0swaps
